% Logging successfully configured
%%%mzn-stat: initTime=0.024580218
%%%mzn-stat: objective=444
%%%mzn-stat: nodes=148
%%%mzn-stat: restarts=0
%%%mzn-stat: peakDepth=69
%%%mzn-stat: solveTime=0.003309272
%%%mzn-stat: variables=202
%%%mzn-stat: propagators=313
%%%mzn-stat: failures=56
%%%mzn-stat: propagations=8441
%%%mzn-stat: nogoods=56
%%%mzn-stat: numAtomicConstraintsPropagated=0
%%%mzn-stat: circuitNumber191PropagationsThatFoundConflict=29
%%%mzn-stat: circuitNumber191TotalFixedEdgesAtConflict=384
%%%mzn-stat: circuitNumber191NumberOfConflicts=29
%%%mzn-stat: circuitNumber191PropagationsThatPruned=22
%%%mzn-stat: circuitNumber191PropagationsTotal=119
%%%mzn-stat: AverageConflictSize=6.607142857142857
%%%mzn-stat: NumUnitNogoodsLearned=0
%%%mzn-stat: AverageLearnedNogoodLength=4.535714285714286
%%%mzn-stat: AverageBacktrackAmount=0
%%%mzn-stat: AverageLbd=3.6607142857142856
%%%mzn-stat: 2AutonomousSearchNumBackupCalled=62
%%%mzn-stat: 2AutonomousSearchNumPredicatesRemoved=0
%%%mzn-stat: 2AutonomousSearchNumCalls=63
%%%mzn-stat: 2AutonomousSearchNumPredicatesAdded=480
%%%mzn-stat: 2AutonomousSearchAverageSizeOfHeap=7.619047619047619
%%%mzn-stat: 2AutonomousSearchNumAssignedPredicatesEncountered=480
%%%mzn-stat-end
maxleg = 444;
succ = array1d(1..20,[3, 7, 15, 19, 2, 12, 10, 1, 17, 16, 8, 14, 4, 18, 6, 9, 20, 5, 11, 13]);
% time elapsed: 15.12 s
----------
%%%mzn-stat: initTime=0.024580218
%%%mzn-stat: objective=408
%%%mzn-stat: nodes=288
%%%mzn-stat: restarts=0
%%%mzn-stat: peakDepth=77
%%%mzn-stat: solveTime=0.006697042
%%%mzn-stat: variables=202
%%%mzn-stat: propagators=313
%%%mzn-stat: failures=108
%%%mzn-stat: propagations=15675
%%%mzn-stat: nogoods=108
%%%mzn-stat: numAtomicConstraintsPropagated=0
%%%mzn-stat: circuitNumber191PropagationsThatFoundConflict=60
%%%mzn-stat: circuitNumber191TotalFixedEdgesAtConflict=757
%%%mzn-stat: circuitNumber191NumberOfConflicts=60
%%%mzn-stat: circuitNumber191PropagationsThatPruned=44
%%%mzn-stat: circuitNumber191PropagationsTotal=225
%%%mzn-stat: AverageConflictSize=6.592592592592593
%%%mzn-stat: NumUnitNogoodsLearned=0
%%%mzn-stat: AverageLearnedNogoodLength=4.916666666666667
%%%mzn-stat: AverageBacktrackAmount=0
%%%mzn-stat: AverageLbd=3.6666666666666665
%%%mzn-stat: 2AutonomousSearchNumBackupCalled=130
%%%mzn-stat: 2AutonomousSearchNumPredicatesRemoved=0
%%%mzn-stat: 2AutonomousSearchNumCalls=132
%%%mzn-stat: 2AutonomousSearchNumPredicatesAdded=1018
%%%mzn-stat: 2AutonomousSearchAverageSizeOfHeap=8.113636363636363
%%%mzn-stat: 2AutonomousSearchNumAssignedPredicatesEncountered=1071
%%%mzn-stat-end
maxleg = 408;
succ = array1d(1..20,[8, 5, 14, 13, 6, 12, 15, 11, 10, 16, 19, 1, 20, 18, 3, 7, 9, 2, 4, 17]);
% time elapsed: 15.12 s
----------
%%%mzn-stat: initTime=0.024580218
%%%mzn-stat: objective=390
%%%mzn-stat: nodes=359
%%%mzn-stat: restarts=0
%%%mzn-stat: peakDepth=77
%%%mzn-stat: solveTime=0.007360264
%%%mzn-stat: variables=202
%%%mzn-stat: propagators=313
%%%mzn-stat: failures=113
%%%mzn-stat: propagations=16895
%%%mzn-stat: nogoods=113
%%%mzn-stat: numAtomicConstraintsPropagated=0
%%%mzn-stat: circuitNumber191PropagationsThatFoundConflict=64
%%%mzn-stat: circuitNumber191TotalFixedEdgesAtConflict=815
%%%mzn-stat: circuitNumber191NumberOfConflicts=64
%%%mzn-stat: circuitNumber191PropagationsThatPruned=50
%%%mzn-stat: circuitNumber191PropagationsTotal=245
%%%mzn-stat: AverageConflictSize=6.831858407079646
%%%mzn-stat: NumUnitNogoodsLearned=0
%%%mzn-stat: AverageLearnedNogoodLength=5.017699115044247
%%%mzn-stat: AverageBacktrackAmount=0
%%%mzn-stat: AverageLbd=3.725663716814159
%%%mzn-stat: 2AutonomousSearchNumBackupCalled=188
%%%mzn-stat: 2AutonomousSearchNumPredicatesRemoved=0
%%%mzn-stat: 2AutonomousSearchNumCalls=191
%%%mzn-stat: 2AutonomousSearchNumPredicatesAdded=1258
%%%mzn-stat: 2AutonomousSearchAverageSizeOfHeap=8.706806282722512
%%%mzn-stat: 2AutonomousSearchNumAssignedPredicatesEncountered=1663
%%%mzn-stat-end
maxleg = 390;
succ = array1d(1..20,[11, 5, 14, 13, 6, 12, 15, 19, 10, 16, 8, 1, 20, 18, 3, 7, 9, 2, 4, 17]);
% time elapsed: 15.12 s
----------
%%%mzn-stat: initTime=0.024580218
%%%mzn-stat: objective=376
%%%mzn-stat: nodes=426
%%%mzn-stat: restarts=0
%%%mzn-stat: peakDepth=77
%%%mzn-stat: solveTime=0.007638711
%%%mzn-stat: variables=202
%%%mzn-stat: propagators=313
%%%mzn-stat: failures=113
%%%mzn-stat: propagations=17492
%%%mzn-stat: nogoods=113
%%%mzn-stat: numAtomicConstraintsPropagated=0
%%%mzn-stat: circuitNumber191PropagationsThatFoundConflict=64
%%%mzn-stat: circuitNumber191TotalFixedEdgesAtConflict=815
%%%mzn-stat: circuitNumber191NumberOfConflicts=64
%%%mzn-stat: circuitNumber191PropagationsThatPruned=54
%%%mzn-stat: circuitNumber191PropagationsTotal=255
%%%mzn-stat: AverageConflictSize=6.831858407079646
%%%mzn-stat: NumUnitNogoodsLearned=0
%%%mzn-stat: AverageLearnedNogoodLength=5.017699115044247
%%%mzn-stat: AverageBacktrackAmount=0
%%%mzn-stat: AverageLbd=3.725663716814159
%%%mzn-stat: 2AutonomousSearchNumBackupCalled=248
%%%mzn-stat: 2AutonomousSearchNumPredicatesRemoved=0
%%%mzn-stat: 2AutonomousSearchNumCalls=252
%%%mzn-stat: 2AutonomousSearchNumPredicatesAdded=1258
%%%mzn-stat: 2AutonomousSearchAverageSizeOfHeap=8.948412698412698
%%%mzn-stat: 2AutonomousSearchNumAssignedPredicatesEncountered=2255
%%%mzn-stat-end
maxleg = 376;
succ = array1d(1..20,[11, 5, 14, 13, 18, 12, 15, 19, 10, 16, 8, 1, 20, 2, 3, 7, 9, 6, 4, 17]);
% time elapsed: 15.12 s
----------
==========
% time elapsed: 15.12 s
%%%mzn-stat: initTime=0.024580218
%%%mzn-stat: objective=376
%%%mzn-stat: nodes=433
%%%mzn-stat: restarts=0
%%%mzn-stat: peakDepth=77
%%%mzn-stat: solveTime=0.009236328
%%%mzn-stat: variables=202
%%%mzn-stat: propagators=313
%%%mzn-stat: failures=121
%%%mzn-stat: propagations=18923
%%%mzn-stat: nogoods=121
%%%mzn-stat: numAtomicConstraintsPropagated=0
%%%mzn-stat: circuitNumber191PropagationsThatFoundConflict=65
%%%mzn-stat: circuitNumber191TotalFixedEdgesAtConflict=826
%%%mzn-stat: circuitNumber191NumberOfConflicts=65
%%%mzn-stat: circuitNumber191PropagationsThatPruned=58
%%%mzn-stat: circuitNumber191PropagationsTotal=267
%%%mzn-stat: AverageConflictSize=6.56198347107438
%%%mzn-stat: NumUnitNogoodsLearned=1
%%%mzn-stat: AverageLearnedNogoodLength=5.090909090909091
%%%mzn-stat: AverageBacktrackAmount=0
%%%mzn-stat: AverageLbd=3.6363636363636362
%%%mzn-stat: 2AutonomousSearchNumBackupCalled=248
%%%mzn-stat: 2AutonomousSearchNumPredicatesRemoved=0
%%%mzn-stat: 2AutonomousSearchNumCalls=252
%%%mzn-stat: 2AutonomousSearchNumPredicatesAdded=1691
%%%mzn-stat: 2AutonomousSearchAverageSizeOfHeap=8.948412698412698
%%%mzn-stat: 2AutonomousSearchNumAssignedPredicatesEncountered=2255
%%%mzn-stat-end
